% seed = 0

mint = 55;
% maxt = 214;

nActs = 20;
dur = [0,17,7,15,8,8,8,18,19,10,15,5,17,17,14,9,13,7,7,0];

nSkills = 3;
sreq = [| 0,0,0,
	| 4,2,0,
	| 5,2,0,
	| 0,0,2,
	| 5,2,0,
	| 6,0,2,
	| 0,2,2,
	| 2,2,0,
	| 6,2,2,
	| 0,2,2,
	| 4,0,2,
	| 5,0,0,
	| 3,2,2,
	| 3,2,0,
	| 0,2,2,
	| 5,2,2,
	| 5,2,0,
	| 5,2,2,
	| 0,2,2,
	| 0,0,0, |];

% SumOfsreq = 108;

nResources = 13;
mastery = [| true,false,true,
	| true,true,false,
	| true,false,false,
	| true,false,false,
	| false,true,false,
	| false,true,false,
	| false,false,true,
	| false,true,true,
	| true,false,true,
	| true,false,false,
	| false,false,true,
	| true,false,false,
	| false,true,false, |];

nPrecs = 30;
pred = [1,1,1,1,1,1,1,1,1,1,2,3,4,5,5,6,7,8,9,10,10,11,12,13,14,15,16,17,18,19];
succ = [2,3,4,5,7,9,11,12,17,19,20,13,8,6,8,10,20,20,10,14,15,20,20,20,16,18,20,20,20,20];

nUnrels = 128;
unpred = [2,2,2,2,2,2,2,2,2,2,2,2,2,2,2,2,2,3,3,3,3,3,3,3,3,3,3,3,3,3,3,3,4,4,4,4,4,4,4,4,4,4,4,4,4,4,5,5,5,5,5,5,5,6,6,6,6,6,6,6,6,7,7,7,7,7,7,7,7,7,7,7,7,8,8,8,8,8,8,8,8,8,8,8,9,9,9,9,9,10,10,10,10,10,11,11,11,11,11,11,11,11,12,12,12,12,12,12,12,13,13,13,13,13,13,14,14,14,14,15,15,15,16,16,16,17,17,18];
unsucc = [3,4,5,6,7,8,9,10,11,12,13,14,15,16,17,18,19,4,5,6,7,8,9,10,11,12,14,15,16,17,18,19,5,6,7,9,10,11,12,13,14,15,16,17,18,19,7,9,11,12,13,17,19,7,8,9,11,12,13,17,19,8,9,10,11,12,13,14,15,16,17,18,19,9,10,11,12,13,14,15,16,17,18,19,11,12,13,17,19,11,12,13,17,19,12,13,14,15,16,17,18,19,13,14,15,16,17,18,19,14,15,16,17,18,19,15,17,18,19,16,17,19,17,18,19,18,19,19];

USEFUL_RES = [{},
	{1,2,3,4,5,6,8,9,10,12,13},
	{1,2,3,4,5,6,8,9,10,12,13},
	{1,7,8,9,11},
	{1,2,3,4,5,6,8,9,10,12,13},
	{1,2,3,4,7,8,9,10,11,12},
	{1,2,5,6,7,8,9,11,13},
	{1,2,3,4,5,6,8,9,10,12,13},
	{1,2,3,4,5,6,7,8,9,10,11,12,13},
	{1,2,5,6,7,8,9,11,13},
	{1,2,3,4,7,8,9,10,11,12},
	{1,2,3,4,9,10,12},
	{1,2,3,4,5,6,7,8,9,10,11,12,13},
	{1,2,3,4,5,6,8,9,10,12,13},
	{1,2,5,6,7,8,9,11,13},
	{1,2,3,4,5,6,7,8,9,10,11,12,13},
	{1,2,3,4,5,6,8,9,10,12,13},
	{1,2,3,4,5,6,7,8,9,10,11,12,13},
	{1,2,5,6,7,8,9,11,13},
	{}];

POTENTIAL_ACT = [{2,3,4,5,6,7,8,9,10,11,12,13,14,15,16,17,18,19},
	{2,3,5,6,7,8,9,10,11,12,13,14,15,16,17,18,19},
	{2,3,5,6,8,9,11,12,13,14,16,17,18},
	{2,3,5,6,8,9,11,12,13,14,16,17,18},
	{2,3,5,7,8,9,10,13,14,15,16,17,18,19},
	{2,3,5,7,8,9,10,13,14,15,16,17,18,19},
	{4,6,7,9,10,11,13,15,16,18,19},
	{2,3,4,5,6,7,8,9,10,11,13,14,15,16,17,18,19},
	{2,3,4,5,6,7,8,9,10,11,12,13,14,15,16,17,18,19},
	{2,3,5,6,8,9,11,12,13,14,16,17,18},
	{4,6,7,9,10,11,13,15,16,18,19},
	{2,3,5,6,8,9,11,12,13,14,16,17,18},
	{2,3,5,7,8,9,10,13,14,15,16,17,18,19}];
